webassembly/ejemplos_dzn/13/folder13_json_1.dzn
TERM = { '.', 's(5)', 's(2)', 's(4)', 's(9)', 'local_0', 'local_1', 's(8)', 's(6)', 's(1)', 's(0)', 's(7)', 's(3)', 's(10)', 'in_0'};
null = '.';
s = 13;
n = 12;
ndeps = 5;
max_registers_sz = 4;
NR = 1;
registers = [|'local_0', 's(10)'|];
dependencies = [|'i32.load16_u_0', 'call[function_index(0)]_10', |'call[function_index(0)]_10', 'i32.load8_u_12', |'i32.load16_u_1', 'call[function_index(0)]_10', |'i32.load16_u_5', 'call[function_index(0)]_10', |'i32.load16_s_8', 'call[function_index(0)]_10'|];
GET_ENUM = { GET1, GET2, GET3, GET4, GET5};
SET_ENUM = { SET1, SET2, SET3, SET4, SET5};
TEE_ENUM = { TEE1, TEE2, TEE3, TEE4, TEE5};
N = 10;
OP = { 'call[function_index(0)]_10', 'i32.load16_u_0', 'i32.load16_u_1', 'i32.const_0', 'i32.load16_u_5', 'i32.load16_s_8', 'i32.const_1', 'i32.load8_u_12', 'i32.const_2', 'local.get_0' };
in_ops = [0, 1, 1, 0, 1, 1, 0, 1, 0, 0 ];
out_ops = [3, 1, 1, 1, 1, 1, 1, 1, 1, 1 ];
in1 = ['.', 'in_0', 's(0)', '.', 's(8)', 's(2)', '.', 's(9)', '.', '.' ];
in2 = ['.', '.', '.', '.', '.', '.', '.', '.', '.', '.' ];
in3 = ['.', '.', '.', '.', '.', '.', '.', '.', '.', '.' ];
out1 = ['s(6)', 's(0)', 's(1)', 's(8)', 's(2)', 's(3)', 's(9)', 's(7)', 's(10)', 'local_1' ];
out2 = ['s(5)', '.', '.', '.', '.', '.', '.', '.', '.', '.' ];
out3 = ['s(4)', '.', '.', '.', '.', '.', '.', '.', '.', '.' ];
comm = [false, false, false, false, false, false, false, false, false, false ];
gas = [1, 1, 1, 1, 1, 1, 1, 1, 1, 1 ];
sz = [1, 1, 1, 1, 1, 1, 1, 1, 1, 1 ];
stor = [true, false, false, false, false, false, false, false, false, false ];
lb = [ 1, 1, 1, 1, 1, 1, 1, 1, 1, 1 ];
ub = [ 13, 13, 13, 13, 13, 13, 13, 13, 13, 13 ];
startstack = [ 'in_0', null, null, null, null, null, null, null, null, null, null, null ];
endstack = [ 's(7)', 's(6)', 's(5)', 's(4)', 'local_1', 's(3)', 's(1)', null, null, null, null, null ];
